50
    87    82    84    59    93   100    47    57    49    70    71    95    12    85    96    13    29    55     1    16    37     7     6    76    66    82    73    29    33    38     3    78    48    46    39    91    11    95    64     1    14    90   100     9    36    50    13    78    51     9
     3     1     3     4     5     8     6     8     4     8     1     6     6     1     8     1     2     5     9     1     2    10     8     8     3     2     2     7     8     1    10     1     9     2     2     5     3     5     1     2     6     3     2     4     1     7     3     4     7     9
   404   980  1261  1438   774   265   768  2157   917  1348  2555  2223  2774  1778  1502  1987  1751   427  2573  1477   963  1593  2228  1276  1016  2368  2021  2124  1375  1891   314   655   445  1588   721  1860  2083  1553  1253  1960  2815   789  2758   872   918  1311   643   516  1654   663
